CMD:
./solvers/bin/cadical --plain --no-reduce -t 1600 ./data/cnfs//eijkbs1512/eijkbs1512.90.cnf

c --- [ banner ] -------------------------------------------------------------
c 
c CaDiCaL SAT Solver
c Copyright (c) 2016-2024
c A. Biere, M. Fleury, N. Froleyks, K. Fazekas, F. Pollitt, T. Faller
c JKU Linz, University of Freiburg, TU Wien
c 
c Version 2.1.3 5296d3d2a9bf48c154ab2acb5e44625776d821bf
c g++ (Gentoo 12.3.1_p20230526 p2) 12.3.1 20230526 -Wall -Wextra -O3 -DNDEBUG
c Sat Aug 9 07:26:21 PDT 2025 Linux cedar2.int.cedar.computecanada.ca 5.14.0-362.24.2.el9_3.x86_64 x86_64
c 
c --- [ limit ] --------------------------------------------------------------
c 
c setting time limit to 1600 seconds real time (due to '-t 1600')
c 
c --- [ parsing input ] ------------------------------------------------------
c 
c reading DIMACS file from './data/cnfs//eijkbs1512/eijkbs1512.90.cnf'
c opening file to read './data/cnfs//eijkbs1512/eijkbs1512.90.cnf'
c found 'p cnf 97073 282713' header
c parsed 282713 clauses in 0.04 seconds process time
c 
c --- [ options ] ------------------------------------------------------------
c 
c   --compact=false                (different from default 'true')
c   --decompose=false              (different from default 'true')
c   --deduplicate=false            (different from default 'true')
c   --elim=false                   (different from default 'true')
c   --probe=false                  (different from default 'true')
c   --reduce=false                 (different from default 'true')
c   --subsume=false                (different from default 'true')
c   --ternary=false                (different from default 'true')
c   --transred=false               (different from default 'true')
c   --vivify=false                 (different from default 'true')
c 
c --- [ solving ] ------------------------------------------------------------
c 
c time measured in process time since initialization
c 
c  seconds  reductions  redundant  irredundant
c         MB    restarts       trail       variables
c          level   conflicts       glue         remaining
c 
c *  0.04 48  0 0   0    0    0  0% 0 275045 84807 87%
c {  0.08 49  0 0   0    0    0  0% 0 275045 84807 87%
c i  0.14 50 84 0  79  579  544 26% 2 275045 84783 87%
c i  0.16 50 78 0 107  766  720 25% 2 275045 84772 87%
c i  0.16 50 77 0 107  771  723 25% 2 275045 84770 87%
c i  0.16 50 77 0 107  774  724 25% 2 275045 84753 87%
c i  0.16 50 77 0 107  779  728 25% 2 275045 84747 87%
c i  0.16 50 76 0 107  780  728 25% 2 275045 84724 87%
c i  0.16 50 76 0 107  781  728 25% 2 275045 84723 87%
c i  0.16 50 76 0 107  784  730 25% 2 275045 84555 87%
c i  0.16 50 76 0 107  785  730 25% 2 275045 84554 87%
c }  0.21 50 73 0 149 1000  925 25% 2 275045 84267 87%
c [  0.21 50  0 0 149 1000  925  0% 0 275045 84267 87%
c O  0.22 50 341 0 149 1002  927 26% 2 275045 84267 87%
c i  0.22 50 119 0 149 1106 1018 21% 3 275045 84164 87%
c i  0.36 51 1514 0 150 2632 2445 72% 19 275045 84162 87%
c i  0.45 51 1355 0 150 2881 2686 69% 22 275045 84152 87%
c ]  0.51 51 1294 0 150 3001 2792 67% 24 275045 84152 87%
c {  0.51 51 73 0 150 3001 2792 25% 2 275045 84152 87%
c F  0.51 51 72 0 151 3003 2794 25% 2 275045 84131 87%
c 
c  seconds  reductions  redundant  irredundant
c         MB    restarts       trail       variables
c          level   conflicts       glue         remaining
c 
c i  0.53 51 71 0 169 3174 2952 25% 2 275045 84121 87%
c i  0.55 51 66 0 169 3478 3195 25% 2 275045 84109 87%
c i  0.56 51 64 0 180 3569 3274 25% 2 275045 84103 87%
c i  0.65 51 60 0 259 4225 3879 23% 2 275045 84082 87%
c i  0.65 51 59 0 259 4234 3886 23% 2 275045 84074 87%
c i  0.65 51 59 0 259 4245 3896 23% 2 275045 84053 87%
c i  0.65 51 59 0 259 4251 3901 23% 2 275045 84038 87%
c i  0.65 51 58 0 259 4283 3926 23% 2 275045 84009 87%
c i  0.68 51 58 0 274 4442 4072 23% 2 275045 83936 86%
c i  0.81 51 70 0 382 5294 4849 23% 2 275045 83923 86%
c i  0.81 51 70 0 382 5303 4855 23% 2 275045 83916 86%
c i  0.81 51 69 0 387 5356 4904 23% 2 275045 83898 86%
c i  0.81 51 69 0 387 5379 4921 23% 2 275045 83713 86%
c i  0.81 51 69 0 387 5380 4921 23% 2 275045 83642 86%
c i  0.81 51 69 0 387 5381 4921 23% 2 275045 83641 86%
c i  0.81 51 69 0 387 5382 4921 23% 2 275045 83633 86%
c i  0.85 51 69 0 421 5684 5198 24% 2 275045 83627 86%
c i  0.86 51 69 0 421 5686 5199 24% 2 275045 83554 86%
c i  0.86 51 69 0 421 5689 5200 24% 2 275045 83503 86%
c i  0.86 51 69 0 421 5694 5204 24% 2 275045 83482 86%
c 
c  seconds  reductions  redundant  irredundant
c         MB    restarts       trail       variables
c          level   conflicts       glue         remaining
c 
c i  0.86 51 69 0 421 5697 5204 24% 2 275045 83409 86%
c i  0.86 51 69 0 421 5699 5205 24% 2 275045 83367 86%
c i  0.86 51 69 0 421 5701 5205 24% 2 275045 83362 86%
c i  0.86 51 68 0 421 5756 5253 24% 2 275045 83252 86%
... skipped 632 lines ...
c i 19.31 73 45 0 6652 109721 84417 42% 5 227361 72815 75%
c i 19.31 73 45 0 6652 109730 84424 42% 5 227361 72773 75%
c i 19.31 73 45 0 6652 109763 84453 42% 5 227361 72762 75%
c i 19.32 73 45 0 6652 109850 84528 42% 5 227361 72757 75%
c i 19.32 73 45 0 6652 109853 84530 42% 5 227361 72755 75%
c i 19.32 73 45 0 6652 109882 84554 42% 5 227361 72745 75%
c i 19.40 73 45 0 6664 110031 84681 42% 5 227361 72726 75%
c i 19.64 73 44 0 6739 110869 85438 42% 5 227361 72720 75%
c i 20.16 73 44 0 6856 113282 87606 43% 5 227361 72713 75%
c 
c  seconds  reductions      redundant  irredundant
c         MB    restarts           trail       variables
c          level     conflicts         glue         remaining
c 
c i 20.17 73 44 0 6856 113299 87614 43% 5 227361 72712 75%
c i 20.63 73 44 0 7021 115141 89245 43% 5 227361 72711 75%
c i 21.19 73 43 0 7184 117449 91308 43% 5 227361 72710 75%
c i 21.20 73 43 0 7194 117521 91368 43% 5 227361 72699 75%
c i 21.20 73 43 0 7194 117536 91374 43% 5 227361 72687 75%
c i 21.66 73 43 0 7402 119692 93242 43% 5 227361 72685 75%
c i 21.67 73 43 0 7402 119824 93363 43% 5 227361 72683 75%
c i 21.69 73 43 0 7402 119937 93464 43% 5 227361 72677 75%
c W 21.81 70 43 0 7402 120033 70764 43% 5 207479 72658 75%
c i 21.83 70 43 0 7402 120130 70847 43% 5 207479 72657 75%
c i 22.25 70 42 0 7530 122253 72695 43% 5 207479 70095 72%
c i 22.26 70 42 0 7530 122389 72814 43% 5 207479 70094 72%
c i 22.30 70 42 0 7531 122668 73057 43% 5 207479 70090 72%
c i 22.39 70 42 0 7568 123042 73380 43% 5 207479 69888 72%
c i 22.40 70 42 0 7568 123087 73411 43% 5 207479 69758 72%
c i 22.56 70 41 0 7593 123885 74098 44% 5 207479 69677 72%
c i 22.63 70 41 0 7598 124347 74495 44% 5 207479 69493 72%
c i 22.83 70 41 0 7639 125775 75710 44% 5 207479 66814 69%
c i 22.86 70 41 0 7661 125978 75875 44% 5 207479 66411 68%
c i 22.89 70 41 0 7676 126197 76061 44% 5 207479 62594 64%
c 
c  seconds  reductions      redundant  irredundant
c         MB    restarts           trail       variables
c          level     conflicts         glue         remaining
c 
c i 22.91 70 41 0 7682 126278 76127 44% 5 207479 59042 61%
c i 22.92 70 41 0 7689 126307 76154 44% 5 207479 57822 60%
c i 22.92 70 41 0 7693 126355 76200 44% 5 207479 57809 60%
c i 22.92 70 41 0 7693 126398 76234 44% 5 207479 57660 59%
c i 22.95 70 40 0 7711 126616 76427 44% 5 207479 56592 58%
c } 22.96 70 40 0 7711 126714 76509 44% 5 207479 56591 58%
c 0 22.96 70 40 0 7711 126714 76509 44% 5 207479 56591 58%
c 
c --- [ result ] -------------------------------------------------------------
c 
s UNSATISFIABLE
c 
c --- [ run-time profiling ] -------------------------------------------------
c 
c process time taken by individual solving procedures
c (percentage relative to process time for solving)
c 
c        22.91  100.00% search
c        17.56   76.64% unstable
c         4.95   21.60% stable
c         0.37    1.62% walk
c         0.04    0.19% parse
c         0.03    0.14% lucky
c         0.00    0.00% simplify
c   =================================
c        22.91   99.81% solve
c 
c last line shows process time for solving
c (percentage relative to total process time)
c 
c --- [ statistics ] ---------------------------------------------------------
c 
c chronological:             54227        42.79 %  of conflicts
c conflicts:                126714      5530.49    per second
c decisions:                526182     22965.47    per second
c fixed:                     40482        41.70 %  of all variables
c learned:                  120203        94.86 %  per conflict
c learned_lits:            3518249       100.00 %  learned literals
c minimized:                     0         0.00 %  learned literals
c shrunken:                 667401        18.97 %  learned literals
c minishrunken:             578379        16.44 %  learned literals
c otfs:                       1685         1.33 %  of conflict
c propagations:          302056520        13.18 M  per second
c rephased:                     15      8447.60    interval
c restarts:                   7711        16.43    interval
c stabilizing:                   3        33.14 %  of conflicts
c subsumed:                   7710         1.95 %  of all clauses
c strengthened:               1654         0.42 %  of all clauses
c walked:                        4     31678.50    interval
c 
c seconds are measured in process time for solving
c 
c --- [ resources ] ----------------------------------------------------------
c 
c total process time since initialization:        22.96    seconds
c total real time since initialization:           23.05    seconds
c maximum resident set size of process:           83.09    MB
c 
c --- [ shutting down ] ------------------------------------------------------
c 
c exit 20
